63	66	67	68	69	69	69	69	70	70	70	71	71	71	71	73	73	75	76	77	
57	61	61	63	63	63	63	63	63	64	64	64	64	64	65	66	67	68	69	70	
48	49	51	51	51	51	51	52	52	52	52	52	53	53	53	53	53	55	55	56	
48	49	51	51	51	51	52	52	52	52	52	52	52	52	53	53	54	56	56	56	
